2581235
130,94,20,35,203,187,180,99,190,141,41,128,105,202,53,66,24,148,115,132,226,220,23,60,29,162,32,63,72,118,166,116,102,75,37,40,55,27,163,15,214,46,152,133,155,112,81,28,151,87,113,110,13,64,136,80,17,44,73,58,131,124,42,21,88,109,38,6,212,170,171,150,186,4,33,142,103,153,217,90,228,129,146,12,224,108,62,215,96,76,120,48,204,172,93,98,107,161,7,229,169,67,51,61,227,45,2,125,225,84,119,8,111,137,57,144,3,122,14,194,79,167,221,19,31,43,127,223,30,156,210,192,179,26,78,135,178,159,143,36,140,83,1,39,207,74,183,177,174,25,218,71,49,86,22,50,211,209,134,11,68,230,104,193,149,85,10,189,114,181,65,196,205,34,200,16,173,97,70,91,9,164,188,126,121,106,216,175,100,92,56,18,54,219,222,77,158,185,201,165,147,138,191,197,145,206,208,47,182,101,82,59,168,139,176,52,160,213,89,5,117,123,198,154,199,69,195,95,157,184